c This is an instance of the exact track of PACE 2020 Challenge, see https://pacechallenge.org/2020/ 
c TYPE: social 
c ORIGIN: http://konect.cc/ 
c DESCRIPTION: This directed network contains friendships between boys in a small highschool in Illinois. Each boy was asked once in the fall of 1957 and the spring of 1958. This dataset aggregates the results from both dates. A node represents a boy and an edge between two boys shows that the left boy chose the right boy as a friend. The edge weights show how often that happened. As a boy could choose the same boy twice edge values from 1 to 2 are allowed. 
p tdp 70 274
1 49
1 20
1 9
1 43
1 44
1 13
1 14
2 26
2 67
2 20
2 6
2 42
2 60
2 29
2 14
3 8
3 69
3 31
4 65
4 69
4 17
4 9
4 43
4 45
4 14
4 13
4 49
4 51
4 20
4 24
4 58
5 33
5 68
5 37
5 40
5 46
5 47
5 16
5 49
5 51
5 58
5 15
5 61
5 30
6 42
6 67
6 20
6 26
6 10
6 60
6 29
6 14
7 50
7 36
7 21
7 38
7 8
7 52
7 10
7 34
8 19
8 66
8 36
8 38
8 56
8 27
8 31
9 49
9 17
9 20
9 43
9 13
10 65
10 36
10 41
10 42
10 14
10 18
10 20
10 21
10 26
10 28
10 29
10 62
10 63
11 64
11 33
12 20
12 24
12 41
12 60
12 14
12 44
13 69
13 65
13 43
13 14
13 49
13 20
13 17
13 23
13 39
13 62
14 41
14 42
14 45
14 44
14 20
14 24
14 29
14 60
15 52
15 25
15 68
15 30
15 46
16 49
16 43
16 52
16 51
16 27
16 61
16 30
16 31
17 65
17 39
17 43
17 49
17 19
17 23
17 56
17 28
17 62
18 48
18 32
18 34
18 36
18 53
18 42
18 21
19 66
19 70
19 56
20 33
20 23
20 45
20 49
20 44
20 41
20 24
20 60
20 42
20 31
21 48
21 27
21 50
21 36
21 38
21 54
21 59
21 29
22 28
22 39
23 45
23 34
23 39
23 43
23 28
23 29
23 62
24 60
24 44
24 45
24 29
25 40
25 68
25 61
25 46
26 67
26 44
27 50
27 52
27 38
27 42
27 31
28 34
28 39
28 29
28 62
28 63
29 66
29 45
29 42
29 62
29 63
30 32
30 51
30 68
30 33
30 64
30 47
31 65
31 69
31 52
31 61
32 48
32 33
32 35
32 53
32 54
32 59
32 34
32 47
33 49
33 51
33 47
33 37
34 48
34 53
34 50
34 62
35 53
35 63
36 38
36 50
37 51
38 50
38 52
39 62
40 58
40 51
40 68
41 65
41 60
41 42
43 49
43 69
43 65
43 51
43 58
43 62
44 60
44 45
45 60
46 68
46 57
46 58
47 51
47 64
48 54
48 53
49 51
49 55
49 69
50 52
51 68
51 64
51 57
51 58
52 68
53 59
54 59
54 68
55 61
56 66
56 59
57 68
58 64
59 66
59 70
63 66
63 70
65 69
66 70
